880730
0,69,31,59,30,61,92,48,9,55,17,74,68,5,40,76,95,29,20,19,8,32,56,46,94,65,3,6,80,85,13,38,91,83,64,51,21,72,24,77,50,78,28,39,93,25,16,11,18,42,23,58,89,33,70,53,97,22,10,27,45,66,81,57,15,60,14,44,86,79,67,98,35,49,87,37,75,82,41,96,34,1,26,63,4,2,84,88,7,52,90,43,54,71,62,12,73,36,47,0